Version identifier: 20.1.0.0 | 2020-11-10 | 9bedb6d68
CPXPARAM_Threads                                 1
CPXPARAM_TimeLimit                               100
Generic callback                                 0xfe
Tried aggregator 2 times.
MIP Presolve eliminated 4 rows and 11 columns.
MIP Presolve modified 7 coefficients.
Aggregator did 1 substitutions.
Reduced MIP has 497 rows, 6567 columns, and 19196 nonzeros.
Reduced MIP has 6566 binaries, 0 generals, 0 SOSs, and 0 indicators.
Presolve time = 0.01 sec. (10.32 ticks)
Tried aggregator 1 time.
Reduced MIP has 497 rows, 6567 columns, and 19196 nonzeros.
Reduced MIP has 6566 binaries, 0 generals, 0 SOSs, and 0 indicators.
Presolve time = 0.01 sec. (5.84 ticks)
Probing time = 0.00 sec. (3.45 ticks)
Clique table members: 1484.
MIP emphasis: balance optimality and feasibility.
MIP search method: dynamic search.
Parallel mode: none, using 1 thread.
Root relaxation solution time = 0.00 sec. (2.73 ticks)

        Nodes                                         Cuts/
   Node  Left     Objective  IInf  Best Integer    Best Bound    ItCnt     Gap

      0     0    31544.5633     9                      0.0000        4         
*     0+    0                        37057.4100    31544.5633            14.88%
      0     0    32158.4550    16    37057.4100      Fract: 1       31   13.22%
      0     2    32275.5555   132    37057.4100    32534.6098       31   12.20%
Elapsed time = 2.94 sec. (897.01 ticks, tree = 0.01 MB, solutions = 1)
      9    11    34525.1300     6    37057.4100    33263.4600      164   10.24%
     11    13    37020.6645    92    37057.4100    33263.4600      170   10.24%
     17    19    37020.6645    88    37057.4100    33263.4600      242   10.24%
     18    20    37020.6645    88    37057.4100    33263.4600      243   10.24%
     34    32    34131.3800    36    37057.4100    33326.2376      397   10.07%
     37    35    34680.1871    53    37057.4100    33326.2376      400   10.07%
     40    38    34742.2100    19    37057.4100    33326.2376      408   10.07%
     43    41    37020.6645    90    37057.4100    33326.2376      424   10.07%
     47    45    36080.2900    21    37057.4100    33326.2376      485   10.07%
     49    47    37020.6645    94    37057.4100    33326.2376      523   10.07%
Elapsed time = 12.28 sec. (9636.13 ticks, tree = 0.36 MB, solutions = 1)
     50    48    37020.6645    88    37057.4100    33326.2376      524   10.07%
     72    59    35892.3860    15    37057.4100    34297.3075      689    7.45%
     80    66    37020.6645    96    37057.4100    34297.3075      818    7.45%
     81    67    37020.6645    90    37057.4100    34297.3075      820    7.45%
    104    78    35892.3860    19    37057.4100    34525.1300      968    6.83%
    105    79    37020.6645    92    37057.4100    34525.1300      972    6.83%
    131    94    36315.1700     6    37057.4100    34525.1300     1118    6.83%
    134    95    37024.5100    34    37057.4100    34525.1300     1150    6.83%
    152   106    36080.2900    17    37057.4100    34525.1300     1293    6.83%
    155   107    37025.1814    27    37057.4100    34525.1300     1335    6.83%
Elapsed time = 25.85 sec. (28521.86 ticks, tree = 1.02 MB, solutions = 1)
    171   116    37025.1814    21    37057.4100    34525.1300     1459    6.83%
    181   118    37021.5191    66    37057.4100    34525.1300     1619    6.83%
    196   122    37020.6645    92    37057.4100    34525.1300     1673    6.83%
    201   127    37020.6645    82    37057.4100    34525.1300     1829    6.83%
    203   129    37020.6645    88    37057.4100    34525.1300     1918    6.83%
    209   135    37020.6645    88    37057.4100    34525.1300     2020    6.83%
    210   136    37020.6645    84    37057.4100    34525.1300     2021    6.83%
    232   147    34528.5482    39    37057.4100    34525.1300     2193    6.83%
    246   157    37020.6645    88    37057.4100    34525.1300     2217    6.83%
    263   172        cutoff          37057.4100    34525.1300     2527    6.83%
Elapsed time = 54.14 sec. (65400.67 ticks, tree = 1.84 MB, solutions = 1)
    271   177    37023.9878    35    37057.4100    34525.1300     2719    6.83%
    280   178    34525.9845    95    37057.4100    34525.1300     2794    6.83%
    283   181    37020.6645    90    37057.4100    34525.1300     2847    6.83%
    287   185    37020.6645    92    37057.4100    34525.1300     2870    6.83%
    288   186    37020.6645    86    37057.4100    34525.1300     2871    6.83%
    305   192    34525.1300    27    37057.4100    34525.1300     2937    6.83%
    310   197    37020.6645    90    37057.4100    34525.1300     2947    6.83%
    329   205    37020.6645    94    37057.4100    34525.1300     3130    6.83%
    339   215    35615.9014    31    37057.4100    34525.1300     3358    6.83%
    349   221    34525.9845    88    37057.4100    34525.1300     3432    6.83%
Elapsed time = 83.78 sec. (106064.95 ticks, tree = 2.56 MB, solutions = 1)
    360   232    36080.2900    21    37057.4100    34525.1300     3480    6.83%
    367   235    37020.6645    90    37057.4100    34525.1300     3642    6.83%
    371   239    37021.5191    66    37057.4100    34525.1300     3837    6.83%
    372   240    37023.5700    46    37057.4100    34525.1300     3837    6.83%
    385   243    35410.2645    86    37057.4100    34525.1300     4130    6.83%
    397   255    35428.2100     6    37057.4100    34525.1300     4172    6.83%
Starting limited solution polishing.
    400   254    34525.9845    97    37057.4100    34525.1300     4242    6.83%
Advanced basis not built.

Gomory fractional cuts applied:  1
User cuts applied:  1196

Root node processing (before b&c):
  Real time             =    2.96 sec. (918.38 ticks)
Sequential b&c:
  Real time             =   96.81 sec. (125472.61 ticks)
                          ------------
Total (root+branch&cut) =   99.77 sec. (126390.99 ticks)
SOLUTION ADMISSIBLE TROUVEE 37057.409999999996 37057.41 247.0 264.0
